p tw 480 7201 7 
1 8 
1 251 
2 9 
2 10 
2 252 
3 7 
3 10 
3 311 
4 8 
4 9 
4 312 
5 7 
5 9 
5 451 
6 8 
6 10 
6 452 
11 17 
11 18 
11 131 
12 19 
12 20 
12 132 
13 17 
13 20 
13 261 
14 18 
14 19 
14 262 
15 17 
15 19 
15 281 
16 18 
16 20 
16 282 
21 27 
21 28 
21 51 
22 29 
22 30 
22 52 
23 27 
23 30 
23 411 
24 28 
24 29 
24 412 
25 27 
25 29 
25 471 
26 28 
26 30 
26 472 
31 37 
31 38 
31 71 
32 39 
32 40 
32 72 
33 37 
33 40 
33 331 
34 38 
34 39 
34 332 
35 37 
35 39 
35 413 
36 38 
36 40 
36 414 
41 47 
41 48 
41 263 
42 49 
42 50 
42 264 
43 47 
43 50 
43 291 
44 48 
44 49 
44 292 
45 47 
45 49 
45 313 
46 48 
46 50 
46 314 
51 57 
51 58 
52 59 
52 60 
53 57 
53 60 
53 401 
54 58 
54 59 
54 402 
55 57 
55 59 
55 441 
56 58 
56 60 
56 442 
61 67 
61 68 
61 81 
62 69 
62 70 
62 82 
63 67 
63 70 
63 191 
64 68 
64 69 
64 192 
65 67 
65 69 
65 253 
66 68 
66 70 
66 254 
71 77 
71 78 
72 79 
72 80 
73 77 
73 80 
73 141 
74 78 
74 79 
74 142 
75 77 
75 79 
75 371 
76 78 
76 80 
76 372 
81 87 
81 88 
82 89 
82 90 
83 87 
83 90 
83 151 
84 88 
84 89 
84 152 
85 87 
85 89 
85 161 
86 88 
86 90 
86 162 
91 97 
91 98 
91 301 
92 99 
92 100 
92 302 
93 97 
93 100 
93 421 
94 98 
94 99 
94 422 
95 97 
95 99 
95 431 
96 98 
96 100 
96 432 
101 107 
101 108 
101 153 
102 109 
102 110 
102 154 
103 107 
103 110 
103 315 
104 108 
104 109 
104 316 
105 107 
105 109 
105 321 
106 108 
106 110 
106 322 
111 117 
111 118 
111 303 
112 119 
112 120 
112 304 
113 117 
113 120 
113 373 
114 118 
114 119 
114 374 
115 117 
115 119 
115 423 
116 118 
116 120 
116 424 
121 127 
121 128 
121 231 
122 129 
122 130 
122 232 
123 127 
123 130 
123 283 
124 128 
124 129 
124 284 
125 127 
125 129 
125 403 
126 128 
126 130 
126 404 
131 137 
131 138 
132 139 
132 140 
133 137 
133 140 
133 171 
134 138 
134 139 
134 172 
135 137 
135 139 
135 211 
136 138 
136 140 
136 212 
141 147 
141 148 
142 149 
142 150 
143 147 
143 150 
143 201 
144 148 
144 149 
144 202 
145 147 
145 149 
145 221 
146 148 
146 150 
146 222 
151 157 
151 158 
152 159 
152 160 
153 157 
153 160 
154 158 
154 159 
155 157 
155 159 
155 223 
156 158 
156 160 
156 224 
161 167 
161 168 
162 169 
162 170 
163 167 
163 170 
163 255 
164 168 
164 169 
164 256 
165 167 
165 169 
165 461 
166 168 
166 170 
166 462 
171 177 
171 178 
172 179 
172 180 
173 177 
173 180 
173 241 
174 178 
174 179 
174 242 
175 177 
175 179 
175 293 
176 178 
176 180 
176 294 
181 187 
181 188 
181 341 
182 189 
182 190 
182 342 
183 187 
183 190 
183 361 
184 188 
184 189 
184 362 
185 187 
185 189 
185 473 
186 188 
186 190 
186 474 
191 197 
191 198 
192 199 
192 200 
193 197 
193 200 
193 323 
194 198 
194 199 
194 324 
195 197 
195 199 
195 343 
196 198 
196 200 
196 344 
201 207 
201 208 
202 209 
202 210 
203 207 
203 210 
203 415 
204 208 
204 209 
204 416 
205 207 
205 209 
205 433 
206 208 
206 210 
206 434 
211 217 
211 218 
212 219 
212 220 
213 217 
213 220 
213 381 
214 218 
214 219 
214 382 
215 217 
215 219 
215 391 
216 218 
216 220 
216 392 
221 227 
221 228 
222 229 
222 230 
223 227 
223 230 
224 228 
224 229 
225 227 
225 229 
225 305 
226 228 
226 230 
226 306 
231 237 
231 238 
232 239 
232 240 
233 237 
233 240 
233 265 
234 238 
234 239 
234 266 
235 237 
235 239 
235 271 
236 238 
236 240 
236 272 
241 247 
241 248 
242 249 
242 250 
243 247 
243 250 
243 383 
244 248 
244 249 
244 384 
245 247 
245 249 
245 443 
246 248 
246 250 
246 444 
251 257 
251 258 
252 259 
252 260 
253 257 
253 260 
254 258 
254 259 
255 257 
255 259 
256 258 
256 260 
261 267 
261 268 
262 269 
262 270 
263 267 
263 270 
264 268 
264 269 
265 267 
265 269 
266 268 
266 270 
271 277 
271 278 
272 279 
272 280 
273 277 
273 280 
273 285 
274 278 
274 279 
274 286 
275 277 
275 279 
275 333 
276 278 
276 280 
276 334 
281 287 
281 288 
282 289 
282 290 
283 287 
283 290 
284 288 
284 289 
285 287 
285 289 
286 288 
286 290 
291 297 
291 298 
292 299 
292 300 
293 297 
293 300 
294 298 
294 299 
295 297 
295 299 
295 325 
296 298 
296 300 
296 326 
301 307 
301 308 
302 309 
302 310 
303 307 
303 310 
304 308 
304 309 
305 307 
305 309 
306 308 
306 310 
311 317 
311 318 
312 319 
312 320 
313 317 
313 320 
314 318 
314 319 
315 317 
315 319 
316 318 
316 320 
321 327 
321 328 
322 329 
322 330 
323 327 
323 330 
324 328 
324 329 
325 327 
325 329 
326 328 
326 330 
331 337 
331 338 
332 339 
332 340 
333 337 
333 340 
334 338 
334 339 
335 337 
335 339 
335 453 
336 338 
336 340 
336 454 
341 347 
341 348 
342 349 
342 350 
343 347 
343 350 
344 348 
344 349 
345 347 
345 349 
345 363 
346 348 
346 350 
346 364 
351 357 
351 358 
351 435 
352 359 
352 360 
352 436 
353 357 
353 360 
353 463 
354 358 
354 359 
354 464 
355 357 
355 359 
355 475 
356 358 
356 360 
356 476 
361 367 
361 368 
362 369 
362 370 
363 367 
363 370 
364 368 
364 369 
365 367 
365 369 
365 455 
366 368 
366 370 
366 456 
371 377 
371 378 
372 379 
372 380 
373 377 
373 380 
374 378 
374 379 
375 377 
375 379 
375 393 
376 378 
376 380 
376 394 
381 387 
381 388 
382 389 
382 390 
383 387 
383 390 
384 388 
384 389 
385 387 
385 389 
385 405 
386 388 
386 390 
386 406 
391 397 
391 398 
392 399 
392 400 
393 397 
393 400 
394 398 
394 399 
395 397 
395 399 
395 425 
396 398 
396 400 
396 426 
401 407 
401 408 
402 409 
402 410 
403 407 
403 410 
404 408 
404 409 
405 407 
405 409 
406 408 
406 410 
411 417 
411 418 
412 419 
412 420 
413 417 
413 420 
414 418 
414 419 
415 417 
415 419 
416 418 
416 420 
421 427 
421 428 
422 429 
422 430 
423 427 
423 430 
424 428 
424 429 
425 427 
425 429 
426 428 
426 430 
431 437 
431 438 
432 439 
432 440 
433 437 
433 440 
434 438 
434 439 
435 437 
435 439 
436 438 
436 440 
441 447 
441 448 
442 449 
442 450 
443 447 
443 450 
444 448 
444 449 
445 447 
445 449 
445 465 
446 448 
446 450 
446 466 
451 457 
451 458 
452 459 
452 460 
453 457 
453 460 
454 458 
454 459 
455 457 
455 459 
456 458 
456 460 
461 467 
461 468 
462 469 
462 470 
463 467 
463 470 
464 468 
464 469 
465 467 
465 469 
466 468 
466 470 
471 477 
471 478 
472 479 
472 480 
473 477 
473 480 
474 478 
474 479 
475 477 
475 479 
476 478 
476 480 
